
;this file is automatically generated: Tue Feb 23 13:38:01 CST 2021

;declarations generated

(declare-fun obj_706ceb3d_159b_4c66_bc14_402b1da4ed46 ( Int) Int)
(declare-fun oclExcludes ( Int Int) Bool)
(declare-fun Cardinality ( Int) Int)
(declare-fun type_9cb482c6_e017_49db_ba78_5c1720e0807f_Class43 ( Int) Bool)
(declare-fun type_9cb482c6_e017_49db_ba78_5c1720e0807f_Class44 ( Int) Bool)
(declare-fun type_9cb482c6_e017_49db_ba78_5c1720e0807f_Class45 ( Int) Bool)
(declare-fun type_9cb482c6_e017_49db_ba78_5c1720e0807f_Class40 ( Int) Bool)
(declare-fun type_9cb482c6_e017_49db_ba78_5c1720e0807f_Class41 ( Int) Bool)
(declare-fun type_9cb482c6_e017_49db_ba78_5c1720e0807f_Class42 ( Int) Bool)
(declare-fun type_9cb482c6_e017_49db_ba78_5c1720e0807f_Class36 ( Int) Bool)
(declare-fun type_9cb482c6_e017_49db_ba78_5c1720e0807f_Class37 ( Int) Bool)
(declare-fun type_9cb482c6_e017_49db_ba78_5c1720e0807f_Class38 ( Int) Bool)
(declare-fun type_9cb482c6_e017_49db_ba78_5c1720e0807f_Class39 ( Int) Bool)
(declare-fun type_9cb482c6_e017_49db_ba78_5c1720e0807f_Class10 ( Int) Bool)
(declare-fun type_9cb482c6_e017_49db_ba78_5c1720e0807f_Class11 ( Int) Bool)
(declare-fun type_9cb482c6_e017_49db_ba78_5c1720e0807f_Class12 ( Int) Bool)
(declare-fun type_9cb482c6_e017_49db_ba78_5c1720e0807f_Class13 ( Int) Bool)
(declare-fun type_9cb482c6_e017_49db_ba78_5c1720e0807f_Class21 ( Int) Bool)
(declare-fun type_9cb482c6_e017_49db_ba78_5c1720e0807f_Class22 ( Int) Bool)
(declare-fun type_9cb482c6_e017_49db_ba78_5c1720e0807f_Class23 ( Int) Bool)
(declare-fun type_9cb482c6_e017_49db_ba78_5c1720e0807f_Class24 ( Int) Bool)
(declare-fun type_9cb482c6_e017_49db_ba78_5c1720e0807f_Class20 ( Int) Bool)
(declare-fun type_9cb482c6_e017_49db_ba78_5c1720e0807f_Class18 ( Int) Bool)
(declare-fun type_9cb482c6_e017_49db_ba78_5c1720e0807f_Class19 ( Int) Bool)
(declare-fun type_9cb482c6_e017_49db_ba78_5c1720e0807f_Class14 ( Int) Bool)
(declare-fun type_9cb482c6_e017_49db_ba78_5c1720e0807f_Class15 ( Int) Bool)
(declare-fun type_9cb482c6_e017_49db_ba78_5c1720e0807f_Class16 ( Int) Bool)
(declare-fun type_9cb482c6_e017_49db_ba78_5c1720e0807f_Class17 ( Int) Bool)
(declare-fun type_9cb482c6_e017_49db_ba78_5c1720e0807f_Class32 ( Int) Bool)
(declare-fun type_9cb482c6_e017_49db_ba78_5c1720e0807f_Class33 ( Int) Bool)
(declare-fun type_9cb482c6_e017_49db_ba78_5c1720e0807f_Class34 ( Int) Bool)
(declare-fun type_9cb482c6_e017_49db_ba78_5c1720e0807f_Class35 ( Int) Bool)
(declare-fun type_9cb482c6_e017_49db_ba78_5c1720e0807f_Class30 ( Int) Bool)
(declare-fun type_9cb482c6_e017_49db_ba78_5c1720e0807f_Class31 ( Int) Bool)
(declare-fun type_9cb482c6_e017_49db_ba78_5c1720e0807f_Class29 ( Int) Bool)
(declare-fun oclSelect ( Int Bool) Int)
(declare-fun type_9cb482c6_e017_49db_ba78_5c1720e0807f_Class25 ( Int) Bool)
(declare-fun type_9cb482c6_e017_49db_ba78_5c1720e0807f_Class26 ( Int) Bool)
(declare-fun type_9cb482c6_e017_49db_ba78_5c1720e0807f_Class27 ( Int) Bool)
(declare-fun type_9cb482c6_e017_49db_ba78_5c1720e0807f_Class28 ( Int) Bool)
(declare-fun Enum0 ( Int) Int)
(declare-fun Enum1 ( Int) Int)
(declare-fun Enum2 ( Int) Int)
(declare-fun type_9cb482c6_e017_49db_ba78_5c1720e0807f_Class7 ( Int) Bool)
(declare-fun type_9cb482c6_e017_49db_ba78_5c1720e0807f_Class8 ( Int) Bool)
(declare-fun type_9cb482c6_e017_49db_ba78_5c1720e0807f_Class5 ( Int) Bool)
(declare-fun type_9cb482c6_e017_49db_ba78_5c1720e0807f_Class6 ( Int) Bool)
(declare-fun type_9cb482c6_e017_49db_ba78_5c1720e0807f_Class9 ( Int) Bool)
(declare-fun type_9cb482c6_e017_49db_ba78_5c1720e0807f_Class0 ( Int) Bool)
(declare-fun type_9cb482c6_e017_49db_ba78_5c1720e0807f_Class3 ( Int) Bool)
(declare-fun type_9cb482c6_e017_49db_ba78_5c1720e0807f_Class4 ( Int) Bool)
(declare-fun type_9cb482c6_e017_49db_ba78_5c1720e0807f_Class1 ( Int) Bool)
(declare-fun type_9cb482c6_e017_49db_ba78_5c1720e0807f_Class2 ( Int) Bool)
(declare-fun class20_Class20BoolAttr0 ( Int) Bool)
(declare-fun class20_Class20BoolAttr1 ( Int) Bool)
(declare-fun container_ ( Int) Int)
(declare-fun oclIncludes ( Int Int) Bool)
(declare-fun ObjAt ( Int Int) Int)

;formula(s) generated
(assert (! (or (forall ((v Int)) (=> (and (and ( type_9cb482c6_e017_49db_ba78_5c1720e0807f_Class20 v )  ( type_9cb482c6_e017_49db_ba78_5c1720e0807f_Class21 v ) ) ( type_9cb482c6_e017_49db_ba78_5c1720e0807f_Class2 v ) ) ( class20_Class20BoolAttr1 ( obj_706ceb3d_159b_4c66_bc14_402b1da4ed46 v )  ) )) (forall ((v Int)) (=> (and (and ( type_9cb482c6_e017_49db_ba78_5c1720e0807f_Class20 v )  ( type_9cb482c6_e017_49db_ba78_5c1720e0807f_Class21 v ) ) ( type_9cb482c6_e017_49db_ba78_5c1720e0807f_Class2 v ) ) ( class20_Class20BoolAttr0 ( obj_706ceb3d_159b_4c66_bc14_402b1da4ed46 v )  ) ))):named l0))
(assert (! (exists ((o Int)) (and (and (and ( type_9cb482c6_e017_49db_ba78_5c1720e0807f_Class0 ( obj_706ceb3d_159b_4c66_bc14_402b1da4ed46 o )  )  ( type_9cb482c6_e017_49db_ba78_5c1720e0807f_Class22 ( obj_706ceb3d_159b_4c66_bc14_402b1da4ed46 o )  ) ) ( type_9cb482c6_e017_49db_ba78_5c1720e0807f_Class35 ( obj_706ceb3d_159b_4c66_bc14_402b1da4ed46 o )  ) ) ( type_9cb482c6_e017_49db_ba78_5c1720e0807f_Class2 ( obj_706ceb3d_159b_4c66_bc14_402b1da4ed46 o )  ) )):named c0))
(assert (! (exists ((o Int)) ( type_9cb482c6_e017_49db_ba78_5c1720e0807f_Class1 ( obj_706ceb3d_159b_4c66_bc14_402b1da4ed46 o )  ) ):named c1))
(assert (! (exists ((o Int)) (and (and (and (and ( type_9cb482c6_e017_49db_ba78_5c1720e0807f_Class10 ( obj_706ceb3d_159b_4c66_bc14_402b1da4ed46 o )  )  ( type_9cb482c6_e017_49db_ba78_5c1720e0807f_Class16 ( obj_706ceb3d_159b_4c66_bc14_402b1da4ed46 o )  ) ) ( type_9cb482c6_e017_49db_ba78_5c1720e0807f_Class15 ( obj_706ceb3d_159b_4c66_bc14_402b1da4ed46 o )  ) ) ( type_9cb482c6_e017_49db_ba78_5c1720e0807f_Class41 ( obj_706ceb3d_159b_4c66_bc14_402b1da4ed46 o )  ) ) ( type_9cb482c6_e017_49db_ba78_5c1720e0807f_Class2 ( obj_706ceb3d_159b_4c66_bc14_402b1da4ed46 o )  ) )):named c2))
(assert (! (exists ((o Int)) ( type_9cb482c6_e017_49db_ba78_5c1720e0807f_Class11 ( obj_706ceb3d_159b_4c66_bc14_402b1da4ed46 o )  ) ):named c3))
(assert (! (exists ((o Int)) (and (and (and (and ( type_9cb482c6_e017_49db_ba78_5c1720e0807f_Class12 ( obj_706ceb3d_159b_4c66_bc14_402b1da4ed46 o )  )  ( type_9cb482c6_e017_49db_ba78_5c1720e0807f_Class22 ( obj_706ceb3d_159b_4c66_bc14_402b1da4ed46 o )  ) ) ( type_9cb482c6_e017_49db_ba78_5c1720e0807f_Class35 ( obj_706ceb3d_159b_4c66_bc14_402b1da4ed46 o )  ) ) ( type_9cb482c6_e017_49db_ba78_5c1720e0807f_Class0 ( obj_706ceb3d_159b_4c66_bc14_402b1da4ed46 o )  ) ) ( type_9cb482c6_e017_49db_ba78_5c1720e0807f_Class2 ( obj_706ceb3d_159b_4c66_bc14_402b1da4ed46 o )  ) )):named c4))
(assert (! (exists ((o Int)) (and (and (and ( type_9cb482c6_e017_49db_ba78_5c1720e0807f_Class13 ( obj_706ceb3d_159b_4c66_bc14_402b1da4ed46 o )  )  ( type_9cb482c6_e017_49db_ba78_5c1720e0807f_Class16 ( obj_706ceb3d_159b_4c66_bc14_402b1da4ed46 o )  ) ) ( type_9cb482c6_e017_49db_ba78_5c1720e0807f_Class15 ( obj_706ceb3d_159b_4c66_bc14_402b1da4ed46 o )  ) ) ( type_9cb482c6_e017_49db_ba78_5c1720e0807f_Class2 ( obj_706ceb3d_159b_4c66_bc14_402b1da4ed46 o )  ) )):named c5))
(assert (! (exists ((o Int)) (and (and (and (and (and (and (and ( type_9cb482c6_e017_49db_ba78_5c1720e0807f_Class14 ( obj_706ceb3d_159b_4c66_bc14_402b1da4ed46 o )  )  ( type_9cb482c6_e017_49db_ba78_5c1720e0807f_Class33 ( obj_706ceb3d_159b_4c66_bc14_402b1da4ed46 o )  ) ) ( type_9cb482c6_e017_49db_ba78_5c1720e0807f_Class13 ( obj_706ceb3d_159b_4c66_bc14_402b1da4ed46 o )  ) ) ( type_9cb482c6_e017_49db_ba78_5c1720e0807f_Class16 ( obj_706ceb3d_159b_4c66_bc14_402b1da4ed46 o )  ) ) ( type_9cb482c6_e017_49db_ba78_5c1720e0807f_Class15 ( obj_706ceb3d_159b_4c66_bc14_402b1da4ed46 o )  ) ) ( type_9cb482c6_e017_49db_ba78_5c1720e0807f_Class4 ( obj_706ceb3d_159b_4c66_bc14_402b1da4ed46 o )  ) ) ( type_9cb482c6_e017_49db_ba78_5c1720e0807f_Class41 ( obj_706ceb3d_159b_4c66_bc14_402b1da4ed46 o )  ) ) ( type_9cb482c6_e017_49db_ba78_5c1720e0807f_Class2 ( obj_706ceb3d_159b_4c66_bc14_402b1da4ed46 o )  ) )):named c6))
(assert (! (exists ((o Int)) (and ( type_9cb482c6_e017_49db_ba78_5c1720e0807f_Class15 ( obj_706ceb3d_159b_4c66_bc14_402b1da4ed46 o )  )  ( type_9cb482c6_e017_49db_ba78_5c1720e0807f_Class2 ( obj_706ceb3d_159b_4c66_bc14_402b1da4ed46 o )  ) )):named c7))
(assert (! (exists ((o Int)) (and (and ( type_9cb482c6_e017_49db_ba78_5c1720e0807f_Class16 ( obj_706ceb3d_159b_4c66_bc14_402b1da4ed46 o )  )  ( type_9cb482c6_e017_49db_ba78_5c1720e0807f_Class15 ( obj_706ceb3d_159b_4c66_bc14_402b1da4ed46 o )  ) ) ( type_9cb482c6_e017_49db_ba78_5c1720e0807f_Class2 ( obj_706ceb3d_159b_4c66_bc14_402b1da4ed46 o )  ) )):named c8))
(assert (! (exists ((o Int)) (and (and (and (and ( type_9cb482c6_e017_49db_ba78_5c1720e0807f_Class17 ( obj_706ceb3d_159b_4c66_bc14_402b1da4ed46 o )  )  ( type_9cb482c6_e017_49db_ba78_5c1720e0807f_Class24 ( obj_706ceb3d_159b_4c66_bc14_402b1da4ed46 o )  ) ) ( type_9cb482c6_e017_49db_ba78_5c1720e0807f_Class26 ( obj_706ceb3d_159b_4c66_bc14_402b1da4ed46 o )  ) ) ( type_9cb482c6_e017_49db_ba78_5c1720e0807f_Class32 ( obj_706ceb3d_159b_4c66_bc14_402b1da4ed46 o )  ) ) ( type_9cb482c6_e017_49db_ba78_5c1720e0807f_Class2 ( obj_706ceb3d_159b_4c66_bc14_402b1da4ed46 o )  ) )):named c9))
(assert (! (exists ((o Int)) ( type_9cb482c6_e017_49db_ba78_5c1720e0807f_Class18 ( obj_706ceb3d_159b_4c66_bc14_402b1da4ed46 o )  ) ):named c10))
(assert (! (exists ((o Int)) ( type_9cb482c6_e017_49db_ba78_5c1720e0807f_Class19 ( obj_706ceb3d_159b_4c66_bc14_402b1da4ed46 o )  ) ):named c11))
(assert (! (exists ((o Int)) ( type_9cb482c6_e017_49db_ba78_5c1720e0807f_Class2 ( obj_706ceb3d_159b_4c66_bc14_402b1da4ed46 o )  ) ):named c12))
(assert (! (exists ((o Int)) (and (and ( type_9cb482c6_e017_49db_ba78_5c1720e0807f_Class20 ( obj_706ceb3d_159b_4c66_bc14_402b1da4ed46 o )  )  ( type_9cb482c6_e017_49db_ba78_5c1720e0807f_Class21 ( obj_706ceb3d_159b_4c66_bc14_402b1da4ed46 o )  ) ) ( type_9cb482c6_e017_49db_ba78_5c1720e0807f_Class2 ( obj_706ceb3d_159b_4c66_bc14_402b1da4ed46 o )  ) )):named c13))
(assert (! (exists ((o Int)) (and ( type_9cb482c6_e017_49db_ba78_5c1720e0807f_Class21 ( obj_706ceb3d_159b_4c66_bc14_402b1da4ed46 o )  )  ( type_9cb482c6_e017_49db_ba78_5c1720e0807f_Class2 ( obj_706ceb3d_159b_4c66_bc14_402b1da4ed46 o )  ) )):named c14))
(assert (! (exists ((o Int)) (and (and ( type_9cb482c6_e017_49db_ba78_5c1720e0807f_Class22 ( obj_706ceb3d_159b_4c66_bc14_402b1da4ed46 o )  )  ( type_9cb482c6_e017_49db_ba78_5c1720e0807f_Class35 ( obj_706ceb3d_159b_4c66_bc14_402b1da4ed46 o )  ) ) ( type_9cb482c6_e017_49db_ba78_5c1720e0807f_Class2 ( obj_706ceb3d_159b_4c66_bc14_402b1da4ed46 o )  ) )):named c15))
(assert (! (exists ((o Int)) (and (and (and (and (and (and ( type_9cb482c6_e017_49db_ba78_5c1720e0807f_Class23 ( obj_706ceb3d_159b_4c66_bc14_402b1da4ed46 o )  )  ( type_9cb482c6_e017_49db_ba78_5c1720e0807f_Class12 ( obj_706ceb3d_159b_4c66_bc14_402b1da4ed46 o )  ) ) ( type_9cb482c6_e017_49db_ba78_5c1720e0807f_Class22 ( obj_706ceb3d_159b_4c66_bc14_402b1da4ed46 o )  ) ) ( type_9cb482c6_e017_49db_ba78_5c1720e0807f_Class25 ( obj_706ceb3d_159b_4c66_bc14_402b1da4ed46 o )  ) ) ( type_9cb482c6_e017_49db_ba78_5c1720e0807f_Class35 ( obj_706ceb3d_159b_4c66_bc14_402b1da4ed46 o )  ) ) ( type_9cb482c6_e017_49db_ba78_5c1720e0807f_Class0 ( obj_706ceb3d_159b_4c66_bc14_402b1da4ed46 o )  ) ) ( type_9cb482c6_e017_49db_ba78_5c1720e0807f_Class2 ( obj_706ceb3d_159b_4c66_bc14_402b1da4ed46 o )  ) )):named c16))
(assert (! (exists ((o Int)) (and (and (and ( type_9cb482c6_e017_49db_ba78_5c1720e0807f_Class24 ( obj_706ceb3d_159b_4c66_bc14_402b1da4ed46 o )  )  ( type_9cb482c6_e017_49db_ba78_5c1720e0807f_Class26 ( obj_706ceb3d_159b_4c66_bc14_402b1da4ed46 o )  ) ) ( type_9cb482c6_e017_49db_ba78_5c1720e0807f_Class32 ( obj_706ceb3d_159b_4c66_bc14_402b1da4ed46 o )  ) ) ( type_9cb482c6_e017_49db_ba78_5c1720e0807f_Class2 ( obj_706ceb3d_159b_4c66_bc14_402b1da4ed46 o )  ) )):named c17))
(assert (! (exists ((o Int)) (and (and (and (and (and ( type_9cb482c6_e017_49db_ba78_5c1720e0807f_Class25 ( obj_706ceb3d_159b_4c66_bc14_402b1da4ed46 o )  )  ( type_9cb482c6_e017_49db_ba78_5c1720e0807f_Class12 ( obj_706ceb3d_159b_4c66_bc14_402b1da4ed46 o )  ) ) ( type_9cb482c6_e017_49db_ba78_5c1720e0807f_Class22 ( obj_706ceb3d_159b_4c66_bc14_402b1da4ed46 o )  ) ) ( type_9cb482c6_e017_49db_ba78_5c1720e0807f_Class35 ( obj_706ceb3d_159b_4c66_bc14_402b1da4ed46 o )  ) ) ( type_9cb482c6_e017_49db_ba78_5c1720e0807f_Class0 ( obj_706ceb3d_159b_4c66_bc14_402b1da4ed46 o )  ) ) ( type_9cb482c6_e017_49db_ba78_5c1720e0807f_Class2 ( obj_706ceb3d_159b_4c66_bc14_402b1da4ed46 o )  ) )):named c18))
(assert (! (exists ((o Int)) (and (and ( type_9cb482c6_e017_49db_ba78_5c1720e0807f_Class26 ( obj_706ceb3d_159b_4c66_bc14_402b1da4ed46 o )  )  ( type_9cb482c6_e017_49db_ba78_5c1720e0807f_Class32 ( obj_706ceb3d_159b_4c66_bc14_402b1da4ed46 o )  ) ) ( type_9cb482c6_e017_49db_ba78_5c1720e0807f_Class2 ( obj_706ceb3d_159b_4c66_bc14_402b1da4ed46 o )  ) )):named c19))
(assert (! (exists ((o Int)) (and ( type_9cb482c6_e017_49db_ba78_5c1720e0807f_Class27 ( obj_706ceb3d_159b_4c66_bc14_402b1da4ed46 o )  )  ( type_9cb482c6_e017_49db_ba78_5c1720e0807f_Class2 ( obj_706ceb3d_159b_4c66_bc14_402b1da4ed46 o )  ) )):named c20))
(assert (! (exists ((o Int)) ( type_9cb482c6_e017_49db_ba78_5c1720e0807f_Class28 ( obj_706ceb3d_159b_4c66_bc14_402b1da4ed46 o )  ) ):named c21))
(assert (! (exists ((o Int)) ( type_9cb482c6_e017_49db_ba78_5c1720e0807f_Class29 ( obj_706ceb3d_159b_4c66_bc14_402b1da4ed46 o )  ) ):named c22))
(assert (! (exists ((o Int)) ( type_9cb482c6_e017_49db_ba78_5c1720e0807f_Class3 ( obj_706ceb3d_159b_4c66_bc14_402b1da4ed46 o )  ) ):named c23))
(assert (! (exists ((o Int)) (and ( type_9cb482c6_e017_49db_ba78_5c1720e0807f_Class30 ( obj_706ceb3d_159b_4c66_bc14_402b1da4ed46 o )  )  ( type_9cb482c6_e017_49db_ba78_5c1720e0807f_Class2 ( obj_706ceb3d_159b_4c66_bc14_402b1da4ed46 o )  ) )):named c24))
(assert (! (exists ((o Int)) (and (and (and (and ( type_9cb482c6_e017_49db_ba78_5c1720e0807f_Class31 ( obj_706ceb3d_159b_4c66_bc14_402b1da4ed46 o )  )  ( type_9cb482c6_e017_49db_ba78_5c1720e0807f_Class16 ( obj_706ceb3d_159b_4c66_bc14_402b1da4ed46 o )  ) ) ( type_9cb482c6_e017_49db_ba78_5c1720e0807f_Class15 ( obj_706ceb3d_159b_4c66_bc14_402b1da4ed46 o )  ) ) ( type_9cb482c6_e017_49db_ba78_5c1720e0807f_Class41 ( obj_706ceb3d_159b_4c66_bc14_402b1da4ed46 o )  ) ) ( type_9cb482c6_e017_49db_ba78_5c1720e0807f_Class2 ( obj_706ceb3d_159b_4c66_bc14_402b1da4ed46 o )  ) )):named c25))
(assert (! (exists ((o Int)) (and ( type_9cb482c6_e017_49db_ba78_5c1720e0807f_Class32 ( obj_706ceb3d_159b_4c66_bc14_402b1da4ed46 o )  )  ( type_9cb482c6_e017_49db_ba78_5c1720e0807f_Class2 ( obj_706ceb3d_159b_4c66_bc14_402b1da4ed46 o )  ) )):named c26))
(assert (! (exists ((o Int)) (and (and (and (and (and ( type_9cb482c6_e017_49db_ba78_5c1720e0807f_Class33 ( obj_706ceb3d_159b_4c66_bc14_402b1da4ed46 o )  )  ( type_9cb482c6_e017_49db_ba78_5c1720e0807f_Class13 ( obj_706ceb3d_159b_4c66_bc14_402b1da4ed46 o )  ) ) ( type_9cb482c6_e017_49db_ba78_5c1720e0807f_Class16 ( obj_706ceb3d_159b_4c66_bc14_402b1da4ed46 o )  ) ) ( type_9cb482c6_e017_49db_ba78_5c1720e0807f_Class15 ( obj_706ceb3d_159b_4c66_bc14_402b1da4ed46 o )  ) ) ( type_9cb482c6_e017_49db_ba78_5c1720e0807f_Class41 ( obj_706ceb3d_159b_4c66_bc14_402b1da4ed46 o )  ) ) ( type_9cb482c6_e017_49db_ba78_5c1720e0807f_Class2 ( obj_706ceb3d_159b_4c66_bc14_402b1da4ed46 o )  ) )):named c27))
(assert (! (exists ((o Int)) ( type_9cb482c6_e017_49db_ba78_5c1720e0807f_Class34 ( obj_706ceb3d_159b_4c66_bc14_402b1da4ed46 o )  ) ):named c28))
(assert (! (exists ((o Int)) (and ( type_9cb482c6_e017_49db_ba78_5c1720e0807f_Class35 ( obj_706ceb3d_159b_4c66_bc14_402b1da4ed46 o )  )  ( type_9cb482c6_e017_49db_ba78_5c1720e0807f_Class2 ( obj_706ceb3d_159b_4c66_bc14_402b1da4ed46 o )  ) )):named c29))
(assert (! (exists ((o Int)) ( type_9cb482c6_e017_49db_ba78_5c1720e0807f_Class36 ( obj_706ceb3d_159b_4c66_bc14_402b1da4ed46 o )  ) ):named c30))
(assert (! (exists ((o Int)) ( type_9cb482c6_e017_49db_ba78_5c1720e0807f_Class37 ( obj_706ceb3d_159b_4c66_bc14_402b1da4ed46 o )  ) ):named c31))
(assert (! (exists ((o Int)) (and ( type_9cb482c6_e017_49db_ba78_5c1720e0807f_Class38 ( obj_706ceb3d_159b_4c66_bc14_402b1da4ed46 o )  )  ( type_9cb482c6_e017_49db_ba78_5c1720e0807f_Class2 ( obj_706ceb3d_159b_4c66_bc14_402b1da4ed46 o )  ) )):named c32))
(assert (! (exists ((o Int)) ( type_9cb482c6_e017_49db_ba78_5c1720e0807f_Class39 ( obj_706ceb3d_159b_4c66_bc14_402b1da4ed46 o )  ) ):named c33))
(assert (! (exists ((o Int)) (and (and (and (and (and (and ( type_9cb482c6_e017_49db_ba78_5c1720e0807f_Class4 ( obj_706ceb3d_159b_4c66_bc14_402b1da4ed46 o )  )  ( type_9cb482c6_e017_49db_ba78_5c1720e0807f_Class33 ( obj_706ceb3d_159b_4c66_bc14_402b1da4ed46 o )  ) ) ( type_9cb482c6_e017_49db_ba78_5c1720e0807f_Class13 ( obj_706ceb3d_159b_4c66_bc14_402b1da4ed46 o )  ) ) ( type_9cb482c6_e017_49db_ba78_5c1720e0807f_Class16 ( obj_706ceb3d_159b_4c66_bc14_402b1da4ed46 o )  ) ) ( type_9cb482c6_e017_49db_ba78_5c1720e0807f_Class15 ( obj_706ceb3d_159b_4c66_bc14_402b1da4ed46 o )  ) ) ( type_9cb482c6_e017_49db_ba78_5c1720e0807f_Class41 ( obj_706ceb3d_159b_4c66_bc14_402b1da4ed46 o )  ) ) ( type_9cb482c6_e017_49db_ba78_5c1720e0807f_Class2 ( obj_706ceb3d_159b_4c66_bc14_402b1da4ed46 o )  ) )):named c34))
(assert (! (exists ((o Int)) (and (and (and ( type_9cb482c6_e017_49db_ba78_5c1720e0807f_Class40 ( obj_706ceb3d_159b_4c66_bc14_402b1da4ed46 o )  )  ( type_9cb482c6_e017_49db_ba78_5c1720e0807f_Class21 ( obj_706ceb3d_159b_4c66_bc14_402b1da4ed46 o )  ) ) ( type_9cb482c6_e017_49db_ba78_5c1720e0807f_Class2 ( obj_706ceb3d_159b_4c66_bc14_402b1da4ed46 o )  ) ) ( type_9cb482c6_e017_49db_ba78_5c1720e0807f_Class20 ( obj_706ceb3d_159b_4c66_bc14_402b1da4ed46 o )  ) )):named c35))
(assert (! (exists ((o Int)) (and (and (and ( type_9cb482c6_e017_49db_ba78_5c1720e0807f_Class41 ( obj_706ceb3d_159b_4c66_bc14_402b1da4ed46 o )  )  ( type_9cb482c6_e017_49db_ba78_5c1720e0807f_Class16 ( obj_706ceb3d_159b_4c66_bc14_402b1da4ed46 o )  ) ) ( type_9cb482c6_e017_49db_ba78_5c1720e0807f_Class15 ( obj_706ceb3d_159b_4c66_bc14_402b1da4ed46 o )  ) ) ( type_9cb482c6_e017_49db_ba78_5c1720e0807f_Class2 ( obj_706ceb3d_159b_4c66_bc14_402b1da4ed46 o )  ) )):named c36))
(assert (! (exists ((o Int)) (and (and (and ( type_9cb482c6_e017_49db_ba78_5c1720e0807f_Class42 ( obj_706ceb3d_159b_4c66_bc14_402b1da4ed46 o )  )  ( type_9cb482c6_e017_49db_ba78_5c1720e0807f_Class22 ( obj_706ceb3d_159b_4c66_bc14_402b1da4ed46 o )  ) ) ( type_9cb482c6_e017_49db_ba78_5c1720e0807f_Class35 ( obj_706ceb3d_159b_4c66_bc14_402b1da4ed46 o )  ) ) ( type_9cb482c6_e017_49db_ba78_5c1720e0807f_Class2 ( obj_706ceb3d_159b_4c66_bc14_402b1da4ed46 o )  ) )):named c37))
(assert (! (exists ((o Int)) ( type_9cb482c6_e017_49db_ba78_5c1720e0807f_Class43 ( obj_706ceb3d_159b_4c66_bc14_402b1da4ed46 o )  ) ):named c38))
(assert (! (exists ((o Int)) (and (and (and (and (and (and ( type_9cb482c6_e017_49db_ba78_5c1720e0807f_Class44 ( obj_706ceb3d_159b_4c66_bc14_402b1da4ed46 o )  )  ( type_9cb482c6_e017_49db_ba78_5c1720e0807f_Class33 ( obj_706ceb3d_159b_4c66_bc14_402b1da4ed46 o )  ) ) ( type_9cb482c6_e017_49db_ba78_5c1720e0807f_Class13 ( obj_706ceb3d_159b_4c66_bc14_402b1da4ed46 o )  ) ) ( type_9cb482c6_e017_49db_ba78_5c1720e0807f_Class16 ( obj_706ceb3d_159b_4c66_bc14_402b1da4ed46 o )  ) ) ( type_9cb482c6_e017_49db_ba78_5c1720e0807f_Class15 ( obj_706ceb3d_159b_4c66_bc14_402b1da4ed46 o )  ) ) ( type_9cb482c6_e017_49db_ba78_5c1720e0807f_Class41 ( obj_706ceb3d_159b_4c66_bc14_402b1da4ed46 o )  ) ) ( type_9cb482c6_e017_49db_ba78_5c1720e0807f_Class2 ( obj_706ceb3d_159b_4c66_bc14_402b1da4ed46 o )  ) )):named c39))
(assert (! (exists ((o Int)) ( type_9cb482c6_e017_49db_ba78_5c1720e0807f_Class45 ( obj_706ceb3d_159b_4c66_bc14_402b1da4ed46 o )  ) ):named c40))
(assert (! (exists ((o Int)) ( type_9cb482c6_e017_49db_ba78_5c1720e0807f_Class5 ( obj_706ceb3d_159b_4c66_bc14_402b1da4ed46 o )  ) ):named c41))
(assert (! (exists ((o Int)) (and (and (and (and ( type_9cb482c6_e017_49db_ba78_5c1720e0807f_Class6 ( obj_706ceb3d_159b_4c66_bc14_402b1da4ed46 o )  )  ( type_9cb482c6_e017_49db_ba78_5c1720e0807f_Class22 ( obj_706ceb3d_159b_4c66_bc14_402b1da4ed46 o )  ) ) ( type_9cb482c6_e017_49db_ba78_5c1720e0807f_Class35 ( obj_706ceb3d_159b_4c66_bc14_402b1da4ed46 o )  ) ) ( type_9cb482c6_e017_49db_ba78_5c1720e0807f_Class2 ( obj_706ceb3d_159b_4c66_bc14_402b1da4ed46 o )  ) ) ( type_9cb482c6_e017_49db_ba78_5c1720e0807f_Class42 ( obj_706ceb3d_159b_4c66_bc14_402b1da4ed46 o )  ) )):named c42))
(assert (! (exists ((o Int)) ( type_9cb482c6_e017_49db_ba78_5c1720e0807f_Class7 ( obj_706ceb3d_159b_4c66_bc14_402b1da4ed46 o )  ) ):named c43))
(assert (! (exists ((o Int)) (and (and (and (and (and ( type_9cb482c6_e017_49db_ba78_5c1720e0807f_Class8 ( obj_706ceb3d_159b_4c66_bc14_402b1da4ed46 o )  )  ( type_9cb482c6_e017_49db_ba78_5c1720e0807f_Class16 ( obj_706ceb3d_159b_4c66_bc14_402b1da4ed46 o )  ) ) ( type_9cb482c6_e017_49db_ba78_5c1720e0807f_Class15 ( obj_706ceb3d_159b_4c66_bc14_402b1da4ed46 o )  ) ) ( type_9cb482c6_e017_49db_ba78_5c1720e0807f_Class41 ( obj_706ceb3d_159b_4c66_bc14_402b1da4ed46 o )  ) ) ( type_9cb482c6_e017_49db_ba78_5c1720e0807f_Class10 ( obj_706ceb3d_159b_4c66_bc14_402b1da4ed46 o )  ) ) ( type_9cb482c6_e017_49db_ba78_5c1720e0807f_Class2 ( obj_706ceb3d_159b_4c66_bc14_402b1da4ed46 o )  ) )):named c44))
(assert (! (exists ((o Int)) (and (and (and (and (and (and (and ( type_9cb482c6_e017_49db_ba78_5c1720e0807f_Class9 ( obj_706ceb3d_159b_4c66_bc14_402b1da4ed46 o )  )  ( type_9cb482c6_e017_49db_ba78_5c1720e0807f_Class22 ( obj_706ceb3d_159b_4c66_bc14_402b1da4ed46 o )  ) ) ( type_9cb482c6_e017_49db_ba78_5c1720e0807f_Class35 ( obj_706ceb3d_159b_4c66_bc14_402b1da4ed46 o )  ) ) ( type_9cb482c6_e017_49db_ba78_5c1720e0807f_Class16 ( obj_706ceb3d_159b_4c66_bc14_402b1da4ed46 o )  ) ) ( type_9cb482c6_e017_49db_ba78_5c1720e0807f_Class15 ( obj_706ceb3d_159b_4c66_bc14_402b1da4ed46 o )  ) ) ( type_9cb482c6_e017_49db_ba78_5c1720e0807f_Class0 ( obj_706ceb3d_159b_4c66_bc14_402b1da4ed46 o )  ) ) ( type_9cb482c6_e017_49db_ba78_5c1720e0807f_Class41 ( obj_706ceb3d_159b_4c66_bc14_402b1da4ed46 o )  ) ) ( type_9cb482c6_e017_49db_ba78_5c1720e0807f_Class2 ( obj_706ceb3d_159b_4c66_bc14_402b1da4ed46 o )  ) )):named c45))

 ;end of formula 